PROBLEM NAME: eil51_n10
KNAPSACK DATA TYPE: uncorrelated
DIMENSION: 10
NUMBER OF ITEMS: 45
CAPACITY OF KNAPSACK: 10770
MIN SPEED: 0.1
MAX SPEED: 1
RENTING RATIO: 28.16
EDGE_WEIGHT_TYPE: CEIL_2D
NODE_COORD_SECTION	(INDEX, X, Y):
1	37	52
2	21	47
3	42	41
4	31	32
5	12	42
6	17	33
7	43	67
8	5	64
9	25	55
10	48	28
ITEMS SECTION	(INDEX, PROFIT, WEIGHT, ASSIGNED NODE NUMBER):
1	979	192	7
2	928	539	7
3	861	131	7
4	848	454	7
5	814	834	7
6	813	354	9
7	792	68	9
8	790	280	9
9	789	762	9
10	786	810	9
11	773	586	2
12	753	519	2
13	752	4	2
14	748	144	2
15	714	698	2
16	710	872	8
17	682	337	8
18	652	486	8
19	647	883	8
20	605	134	8
21	585	101	5
22	575	685	5
23	560	764	5
24	559	50	5
25	488	354	5
26	477	851	6
27	393	17	6
28	386	893	6
29	374	13	6
30	373	110	6
31	364	139	4
32	355	415	4
33	353	938	4
34	264	58	4
35	245	675	4
36	242	954	10
37	234	355	10
38	229	211	10
39	225	696	10
40	217	532	10
41	112	139	3
42	111	936	3
43	106	29	3
44	70	246	3
45	50	498	3
